
  32    4
  10   10   10   10

   0   0   0   0   0   5 2 4 8 9 13 
   9   1   0   1   1   2 21 3 
   8   2   1   0   6   2 10 5 
   3   0   3   4   7   3 21 10 6 
   5   0   2   1   5   3 31 12 7 
   3   0   4   4   3   5 31 30 27 14 12 
   3   5   5   3   0   3 27 20 11 
   6   3   5   4   0   2 27 11 
   4   0  10   3   5   1 10 
   6   2   5   0   7   7 30 29 28 24 18 17 15 
   6   5   5   0   4   3 30 18 14 
   6   4   3   0   5   6 29 28 20 19 18 15 
   4   0   7   5   2   6 30 21 20 18 17 15 
   3   0   4   5   4   6 29 28 26 25 23 16 
   4   4   5   6   0   3 26 25 22 
   6   3   6   5   0   2 22 19 
   3   3   3   4   0   2 27 22 
   8   5   4   3   0   1 23 
   7   6   3   0   2   1 24 
   6   5   5   4   0   1 23 
   2   3   3   0   4   1 27 
   5   5   4   0   5   1 32
  10   9   2   0   4   1 32
   2   6   3   4   0   1 32
   6   0   5   3   1   1 32
   3   7   5   5   0   1 32
   2   3   0   5   4   1 32
   3   4   2   0   6   1 32
   3   0   2   6   2   1 32
   7   2   0   5   3   1 32
   5   1   2   4   0   1 32
   0   0   0   0   0   0 
